50
100
99
97
97
96
96
95
94
93
92
90
86
85
85
84
82
82
82
80
79
75
73
72
72
71
70
69
69
68
68
66
65
63
61
60
57
55
53
49
48
47
44
41
41
39
36
34
32
31
31
31
